<number of tasks>
250

<cycle time>
1000

<order strength>
0.597


<task times>
1 58
2 167
3 273
4 88
5 149
6 342
7 363
8 285
9 537
10 499
11 427
12 67
13 66
14 475
15 246
16 74
17 280
18 509
19 211
20 59
21 302
22 431
23 478
24 34
25 164
26 139
27 23
28 526
29 436
30 109
31 189
32 461
33 424
34 137
35 185
36 73
37 85
38 64
39 243
40 141
41 67
42 242
43 54
44 177
45 199
46 281
47 115
48 169
49 321
50 146
51 547
52 123
53 264
54 220
55 526
56 229
57 527
58 201
59 204
60 514
61 230
62 162
63 24
64 234
65 205
66 78
67 345
68 208
69 318
70 302
71 101
72 90
73 226
74 114
75 300
76 282
77 36
78 207
79 158
80 216
81 154
82 83
83 521
84 381
85 117
86 369
87 168
88 516
89 525
90 378
91 104
92 41
93 477
94 73
95 486
96 220
97 38
98 253
99 509
100 217
101 212
102 480
103 26
104 146
105 36
106 102
107 202
108 58
109 312
110 220
111 120
112 178
113 287
114 64
115 495
116 125
117 210
118 166
119 138
120 48
121 55
122 69
123 320
124 512
125 57
126 163
127 446
128 212
129 132
130 340
131 189
132 35
133 85
134 24
135 30
136 289
137 237
138 526
139 172
140 75
141 285
142 252
143 254
144 182
145 274
146 45
147 181
148 30
149 520
150 117
151 221
152 208
153 315
154 86
155 275
156 188
157 222
158 547
159 122
160 510
161 494
162 95
163 50
164 209
165 216
166 20
167 477
168 40
169 256
170 83
171 27
172 268
173 238
174 315
175 402
176 90
177 117
178 226
179 290
180 99
181 108
182 137
183 26
184 198
185 264
186 163
187 143
188 431
189 162
190 505
191 455
192 390
193 154
194 431
195 45
196 203
197 294
198 215
199 458
200 193
201 117
202 262
203 284
204 549
205 354
206 63
207 144
208 565
209 162
210 516
211 24
212 459
213 506
214 49
215 167
216 264
217 337
218 59
219 88
220 148
221 308
222 28
223 529
224 233
225 195
226 220
227 102
228 364
229 380
230 101
231 561
232 47
233 425
234 81
235 40
236 160
237 355
238 118
239 172
240 35
241 428
242 107
243 434
244 138
245 612
246 55
247 454
248 394
249 476
250 135

<precedence relations>
1,157
2,230
3,144
4,51
5,51
6,210
7,23
8,10
8,11
8,12
8,13
8,22
8,35
8,45
8,46
9,11
9,12
9,14
9,15
9,16
10,110
11,51
12,51
13,227
14,22
14,24
14,26
14,29
14,32
14,33
14,34
14,35
15,19
15,20
15,21
15,22
15,23
16,17
16,18
16,127
17,157
18,126
19,51
20,51
21,52
22,52
23,24
23,25
23,26
23,27
23,28
23,29
23,30
23,31
23,32
23,33
23,34
23,35
24,190
25,157
26,126
27,126
28,126
29,126
30,144
31,51
32,51
33,36
33,96
34,37
34,38
34,39
34,40
35,51
36,130
37,126
38,126
39,144
40,41
40,42
40,43
40,44
40,45
40,46
41,130
42,157
43,51
44,52
45,52
46,47
46,48
46,49
46,50
46,53
46,54
46,95
47,130
48,110
49,144
50,144
51,55
51,56
51,57
51,58
51,59
51,60
51,61
51,62
51,67
52,63
52,64
52,65
52,66
52,109
53,92
54,97
54,112
55,110
56,210
57,85
57,96
57,97
58,68
58,86
58,109
59,68
59,69
59,71
59,72
60,68
60,69
60,71
61,68
61,73
62,70
62,84
62,95
63,68
63,69
63,70
63,110
64,68
64,90
64,119
65,72
65,90
65,91
65,181
65,189
66,112
66,130
67,68
67,69
67,108
67,146
68,230
69,144
70,155
71,92
72,227
73,74
73,75
73,76
73,77
73,78
73,79
73,80
73,81
74,130
75,130
76,130
77,110
78,92
79,83
79,91
79,108
79,166
80,82
80,83
80,84
80,85
80,96
81,86
82,157
83,210
84,92
85,92
86,87
86,88
86,89
86,90
86,91
86,93
86,94
86,95
86,111
87,157
88,157
89,126
90,144
91,210
92,98
92,99
92,100
92,101
92,102
92,103
92,104
92,105
92,106
92,107
93,97
93,107
94,96
94,138
95,119
96,130
97,110
98,112
100,109
100,120
100,123
101,112
102,110
102,126
102,127
103,108
103,109
103,110
103,111
103,127
104,108
105,108
105,111
106,182
106,187
106,212
107,112
107,130
108,130
109,130
110,113
110,114
110,115
110,116
110,117
110,119
110,121
110,122
110,138
111,144
112,118
112,120
112,148
113,155
114,136
114,189
115,123
115,124
115,125
115,137
115,146
116,123
118,126
119,129
119,183
120,127
120,129
120,145
121,129
121,187
122,124
122,128
123,130
124,130
125,130
126,131
126,132
126,133
126,134
126,135
126,136
126,138
126,147
127,144
128,155
129,136
129,137
130,139
130,140
130,141
130,142
130,143
130,145
131,146
131,230
132,183
132,209
133,145
135,155
135,181
135,184
135,193
136,144
137,144
138,144
138,145
138,157
139,157
140,147
140,148
141,181
141,187
142,147
142,156
142,179
143,147
143,148
144,149
144,150
144,151
144,152
144,153
144,154
144,156
145,155
147,157
148,157
149,166
149,186
149,191
150,165
151,179
151,204
152,158
152,164
152,179
152,206
153,180
153,205
154,190
154,208
155,159
155,160
155,161
155,162
155,163
155,165
156,194
156,209
156,230
157,167
157,168
157,169
157,170
157,171
157,172
157,173
157,174
157,175
157,176
157,177
157,178
158,230
160,179
160,180
160,191
163,186
164,227
166,188
167,204
168,185
169,184
169,207
170,227
170,230
171,189
172,180
172,183
174,181
174,183
174,188
176,192
176,225
177,181
177,208
178,180
178,189
178,205
179,182
179,192
180,190
181,190
182,210
183,206
183,228
184,189
184,194
185,186
185,187
185,188
186,190
187,191
187,213
188,192
188,193
188,194
189,191
189,206
189,208
190,195
190,196
190,197
190,198
190,199
190,200
190,201
190,202
190,203
190,204
191,210
192,205
194,204
194,229
195,210
195,211
196,211
197,210
198,206
198,209
200,206
200,207
203,213
203,226
205,208
206,230
207,210
208,210
209,211
209,212
209,213
210,214
210,215
210,216
210,217
210,218
210,219
210,220
210,221
210,222
210,223
212,225
213,224
215,226
216,228
216,229
218,229
218,250
219,228
221,229
223,230
224,227
225,229
226,230
227,231
227,232
227,233
227,234
227,235
227,236
227,237
227,238
227,239
227,240
227,241
228,242
229,242
230,243
230,244
230,245
230,246
230,247
232,250
236,248
243,248
244,248
244,249
245,249
246,250
247,250

<end>
